Cars = 1..200;
Options = 1..5;
Classes = 1..26;
sequenceMinCapacity = [0, 0, 0, 0, 0];
sequenceMaxCapacity = [1, 2, 1, 2, 1];
sequenceSize = [2, 3, 3, 5, 5];
numOrdered = [3, 8, 39, 8, 6, 10, 3, 8, 12, 2, 3, 22, 8, 14, 2, 3, 4, 1, 2, 1, 2, 4, 14, 1, 4, 16];
classHasOption = [|false,  true, false,  true,  true
                  |false, false, false, false,  true
                  |false,  true, false, false, false
                  |false,  true,  true, false, false
                  | true, false,  true, false,  true
                  | true,  true, false,  true, false
                  |false,  true,  true, false,  true
                  | true, false,  true, false, false
                  |false, false,  true, false, false
                  |false, false,  true,  true,  true
                  | true,  true,  true,  true, false
                  | true,  true, false, false, false
                  | true, false, false,  true, false
                  |false,  true, false,  true, false
                  | true,  true,  true, false, false
                  |false, false, false,  true,  true
                  |false,  true, false, false,  true
                  | true, false, false,  true,  true
                  | true,  true, false, false,  true
                  |false, false,  true, false,  true
                  |false, false,  true,  true, false
                  | true, false,  true,  true, false
                  |false, false, false, false, false
                  | true, false, false, false,  true
                  |false,  true,  true, false, false
                  | true, false, false, false, false|];
optionOrdering = [5, 1, 3, 2, 4];
